100
2 48
64 71
33 83
77 89
96 61
53 55
38 10
7 40
7 1
73 68
4 24
82 56
30 56
38 62
42 53
5 49
1 85
94 4
50 70
35 69
14 41
94 73
23 96
96 88
74 94
68 52
73 22
92 96
4 48
24 10
52 72
61 46
38 9
90 15
58 41
93 41
8 74
13 87
34 68
84 97
35 20
96 79
73 87
21 1
28 93
55 94
56 84
68 99
30 53
85 49
85 2
0 30
12 71
26 55
72 75
71 21
33 49
51 2
93 7
70 22
54 53
26 17
DEMAND_SECTION Best value: 1290
0 
26 
18 
16 
8 
7 
11 
4 
9 
9 
16 
7 
6 
1 
2 
22 
23 
4 
3 
20 
7 
1 
2 
12 
22 
6 
11 
12 
2 
14 
14 
2 
9 
20 
2 
18 
19 
18 
4 
16 
26 
3 
23 
16 
10 
9 
21 
24 
24 
19 
12 
16 
6 
2 
2 
2 
23 
16 
26 
21 
2 
7 